TYPE : Vertex Cover
DIMENSION: 21
EDGE_DATA_SECTION:
0 3
0 7
0 9
0 18
1 7
1 10
1 20
2 3
2 12
3 9
3 19
3 20
4 6
4 12
4 17
5 6
5 7
6 17
6 18
7 10
7 17
7 18
7 19
8 9
8 11
8 16
9 10
9 12
9 17
10 14
10 19
11 15
12 15
13 15
13 18
13 19
14 16
14 18
15 18
15 19
17 19
19 20
-1
VERTEX_DEGREE:
4.0 3.0 2.0 5.0 3.0 2.0 4.0 7.0 3.0 6.0 5.0 2.0 4.0 3.0 3.0 5.0 2.0 5.0 6.0 7.0 3.0
VERTEX_COVER:
0 3 6 7 8 10 12 13 14 15 17 20
EOF
